10J3M/DAT/10J3MUTR-15.dat
10 3
41.8853 44.598
43.0 27.7425
29.9508 3.8789
20.2053 22.6109
42.2592 0.3334
12.0697 36.2467
27.9105 30.5237
43.9119 40.2321
5.9448 29.6351
3.33 22.5998
64.6003