10J3M/SOL/10J3MUTR-15.sol
solution status: optimal solution found
objective value:                     75.5710374637907
x#1#3                                               1 	(obj:0)
x#2#2                                               1 	(obj:0)
x#3#1                                               1 	(obj:0)
x#4#2                               0.264292224157186 	(obj:0)
x#5#1                              0.0886579598750475 	(obj:0)
x#5#2                               0.803954765472502 	(obj:0)
x#5#3                                0.10738727465245 	(obj:0)
x#6#2                               0.434032866896847 	(obj:0)
x#6#3                               0.565967133103153 	(obj:0)
x#7#1                                0.77901465917675 	(obj:0)
x#7#2                                0.22098534082325 	(obj:0)
x#8#1                                               1 	(obj:0)
x#10#1                                              1 	(obj:0)
z                                    75.5710374637907 	(obj:1)
